\ This file has been generated by DOcplex
\ ENCODING=ISO-8859-1
\Problem name: random_problem.lp

Minimize
 obj: 752 x0 + 376 x1 + 188 x2 - 192 x3 - 96 x4 - 48 x5 - 1180 x6 - 590 x7
      - 295 x8 + [ 3168 x0^2 + 3168 x0*x1 + 1584 x0*x2 + 1280 x0*x3 + 640 x0*x4
      + 320 x0*x5 + 2048 x0*x6 + 1024 x0*x7 + 512 x0*x8 + 792 x1^2 + 792 x1*x2
      + 640 x1*x3 + 320 x1*x4 + 160 x1*x5 + 1024 x1*x6 + 512 x1*x7 + 256 x1*x8
      + 198 x2^2 + 320 x2*x3 + 160 x2*x4 + 80 x2*x5 + 512 x2*x6 + 256 x2*x7
      + 128 x2*x8 + 2048 x3^2 + 2048 x3*x4 + 1024 x3*x5 + 1472 x3*x6 + 736 x3*x7
      + 368 x3*x8 + 512 x4^2 + 512 x4*x5 + 736 x4*x6 + 368 x4*x7 + 184 x4*x8
      + 128 x5^2 + 368 x5*x6 + 184 x5*x7 + 92 x5*x8 + 1568 x6^2 + 1568 x6*x7
      + 784 x6*x8 + 392 x7^2 + 392 x7*x8 + 98 x8^2 ]/2
Subject To
 c0: 4 x0 + 2 x1 + x2 + 4 x3 + 2 x4 + x5 + 4 x6 + 2 x7 + x8 = 7

Bounds
 0 <= x0 <= 1
 0 <= x1 <= 1
 0 <= x2 <= 1
 0 <= x3 <= 1
 0 <= x4 <= 1
 0 <= x5 <= 1
 0 <= x6 <= 1
 0 <= x7 <= 1
 0 <= x8 <= 1

Binaries
 x0 x1 x2 x3 x4 x5 x6 x7 x8
End
